; benchmark generated from python API
(set-info :status unknown)
(declare-fun S_4 () Real)
(declare-fun S_3 () Real)
(declare-fun C () Real)
(declare-fun L0 () Real)
(declare-fun B () Real)
(declare-fun S_0 () Real)
(declare-fun S_1 () Real)
(declare-fun L_1 () Real)
(declare-fun A_3 () Real)
(declare-fun L_0 () Real)
(declare-fun S_2 () Real)
(declare-fun L_3 () Real)
(declare-fun A_2 () Real)
(declare-fun L_2 () Real)
(declare-fun A_1 () Real)
(declare-fun A_4 () Real)
(declare-fun A_0 () Real)
(assert
 (let (($x37 (>= L0 0.0)))
 (let (($x746 (>= C 5.0)))
 (let (($x721 (>= B 5.0)))
 (let (($x2071 (>= S_4 (+ A_3 (* (- 1.0) L_1)))))
 (let (($x801 (not (<= L_1 L_0))))
 (let (($x9930 (or $x801 $x2071 (<= (+ (* 2.0 C) S_1 (* (- 1.0) S_4)) 0.0))))
 (let (($x10153 (or $x801 $x2071 (<= (+ (* 3.0 C) (* (- 1.0) S_4) S_0) 0.0))))
 (let (($x5120 (= L_3 L_0)))
 (let (($x3461 (not (= L_0 L_2))))
 (let (($x9940 (or $x3461 $x5120 (<= (+ A_2 (* (- 1.0) L_0) L_3 (* (- 1.0) A_3) C) 0.0))))
 (let ((?x469 (* (- 1.0) L_2)))
 (let ((?x869 (+ A_3 ?x469)))
 (let (($x2569 (>= S_4 ?x869)))
 (let (($x54 (= L_1 L_0)))
 (let (($x10069 (or $x54 (<= S_4 (+ A_1 (* (- 1.0) L_1) (* (- 1.0) B) (* 3.0 C))))))
 (let ((?x1073 (* 2.0 C)))
 (let ((?x529 (* (- 1.0) B)))
 (let ((?x322 (* (- 1.0) L_1)))
 (let ((?x6856 (+ A_1 ?x322 ?x529 ?x1073)))
 (let (($x7159 (>= S_4 ?x6856)))
 (let (($x6552 (<= A_2 (+ A_1 ?x529 C))))
 (let (($x1986 (not (= L_1 L_2))))
 (let (($x464 (<= A_3 (+ A_2 ?x529 C))))
 (let (($x9750 (or $x464 (not (= L_2 (+ A_2 (* (- 1.0) A_1) L_1 (* (- 1.0) C)))) $x7159)))
 (let (($x6779 (<= (+ A_2 (* (- 1.0) A_1) (* (- 1.0) C)) 0.0)))
 (let (($x1485 (= L_2 L_0)))
 (let (($x1286 (not (= L_0 L_1))))
 (let (($x7077 (or $x1286 $x1485 (<= (+ A_1 (* (- 1.0) L_0) L_2 (* (- 1.0) A_2) C) 0.0))))
 (let (($x802 (<= L_3 L_2)))
 (let (($x64 (= L_2 L_1)))
 (let (($x744 (not (= L_2 L_3))))
 (let (($x10194 (or $x64 (<= (+ A_3 (* (- 1.0) A_2) (* (- 1.0) C)) 0.0) $x744)))
 (let (($x2121 (not (= L_1 L_3))))
 (let (($x9811 (or $x54 $x2121 (<= (+ A_3 (* (- 1.0) A_1) (* (- 2.0) C)) 0.0))))
 (let (($x1177 (not (<= L_2 L_0))))
 (let (($x74 (= L_3 L_2)))
 (let (($x9665 (or $x74 $x1177 (<= (+ A_1 (* (- 1.0) L_0) L_3 (* (- 1.0) A_3) ?x1073) 0.0))))
 (let (($x9801 (or $x74 $x1177 (<= S_0 (+ ?x529 (* (- 1.0) L_3) A_3 (* (- 3.0) C))))))
 (let (($x6849 (or $x74 $x1177 (<= S_1 (+ ?x529 (* (- 1.0) L_3) A_3 (* (- 2.0) C))))))
 (let (($x6714 (= L_2 (+ A_2 (* (- 1.0) A_1) L_1 (* (- 1.0) C)))))
 (let (($x6509 (not $x6552)))
 (let (($x2238 (= L_3 L_1)))
 (let (($x8100 (or $x2238 $x6509 (= (+ A_3 (* (- 1.0) L_3) ?x529) (+ A_2 ?x322 C)))))
 (let ((?x2482 (+ A_1 ?x322 ?x529 C)))
 (let ((?x470 (+ A_2 ?x469)))
 (let (($x6616 (<= ?x470 ?x2482)))
 (let (($x6671 (or $x54 $x74 $x6616 (= (+ A_3 (* (- 1.0) L_3)) (+ A_1 ?x322 ?x1073)))))
 (let (($x36 (>= L_0 L0)))
 (let (($x111 (>= S_1 S_0)))
 (let (($x114 (>= S_2 S_1)))
 (let (($x117 (>= S_3 S_2)))
 (let (($x122 (>= A_1 A_0)))
 (let (($x123 (>= A_2 A_1)))
 (let (($x124 (>= A_3 A_2)))
 (let (($x125 (>= A_4 A_3)))
 (and (<= ?x470 S_4) (not (<= (+ A_0 (* (- 1.0) L_0)) S_3)) $x125 $x124 $x123 $x122 $x117 $x114 $x111 $x36 (>= S_4 (+ A_3 (* (- 1.0) L_3) ?x529)) (or $x54 (<= S_1 (+ A_1 ?x322 ?x529))) (or $x74 (<= S_3 (+ A_3 (* (- 1.0) L_3) ?x529))) (or $x54 (<= S_0 (+ ?x529 ?x322 A_1 (* (- 1.0) C)))) (or $x54 $x801) (or $x64 (<= S_2 (+ A_2 ?x469 ?x529))) (or $x1286 (>= S_2 (+ A_1 (* (- 1.0) L_0) ?x529))) (or (>= S_3 (+ A_1 (* (- 1.0) L_0) ?x529 C)) $x1286) (>= S_1 (+ ?x529 ?x322 A_1 (* (- 1.0) C))) (>= S_0 (+ ?x529 ?x322 A_1 (* (- 2.0) C))) (or (>= S_3 ?x2482) $x6616) (<= S_2 (+ A_2 ?x322)) (or (not $x6616) $x64) (or (>= S_3 (+ A_2 ?x322)) $x6509) (or $x74 (<= S_4 (+ A_3 (* (- 1.0) L_3) ?x529 C))) (or $x64 (<= S_4 (+ A_2 ?x469 ?x529 ?x1073))) $x6671 (>= S_3 (+ A_2 ?x469 ?x529)) (or $x54 (<= S_2 ?x2482)) $x8100 (>= S_2 (+ A_1 ?x322 ?x529)) (or $x74 (not $x802)) (<= S_4 (+ A_4 (* (- 1.0) L_3))) (or $x54 $x64 $x6714) (<= S_4 (+ A_3 ?x322 C)) (<= S_4 (+ A_2 ?x322 ?x1073)) (or $x2071 $x6509 (>= S_4 (+ A_2 ?x322 C))) (or $x2121 (<= (+ A_3 (* (- 1.0) A_2) (* (- 1.0) C)) B)) $x6849 (>= S_3 (+ ?x529 (* (- 1.0) L_3) A_3 (* (- 1.0) C))) (or $x74 (<= S_2 (+ ?x529 (* (- 1.0) L_3) A_3 (* (- 1.0) C)))) (>= S_1 (+ ?x529 (* (- 1.0) L_3) A_3 (* (- 3.0) C))) (>= S_2 (+ ?x529 (* (- 1.0) L_3) A_3 (* (- 2.0) C))) (>= S_0 (+ ?x529 (* (- 1.0) L_3) A_3 (* (- 4.0) C))) (or $x1177 (<= (+ ?x1073 (* (- 1.0) S_3) S_0) 0.0)) (<= (+ C (* (- 1.0) S_2) S_0) 0.0) $x9801 $x9665 (<= (+ (* (- 2.0) C) S_1 (* (- 1.0) S_0)) 0.0) (or $x1177 (<= (+ C S_1 (* (- 1.0) S_3)) 0.0)) (<= (+ (* (- 3.0) C) S_2 (* (- 1.0) S_0)) 0.0) (<= (+ (* (- 2.0) C) S_2 (* (- 1.0) S_1)) 0.0) $x9811 $x10194 (>= S_0 (+ ?x529 ?x469 A_2 (* (- 3.0) C))) (>= S_1 (+ ?x529 ?x469 A_2 (* (- 2.0) C))) (or $x1177 $x1485) (or $x64 $x802 (= (+ A_3 (* (- 1.0) L_3)) (+ A_2 ?x469 C))) (or $x64 (<= S_1 (+ ?x529 ?x469 A_2 (* (- 1.0) C)))) (or $x64 (<= S_0 (+ ?x529 ?x469 A_2 (* (- 2.0) C)))) $x7077 (>= S_2 (+ ?x529 ?x469 A_2 (* (- 1.0) C))) (or (not $x6779) $x64) (<= S_3 ?x869) (or $x54 $x1986 $x6779) (<= S_4 (+ A_3 ?x469 C)) $x9750 (or $x2569 (not $x464)) (or $x54 (<= S_3 ?x6856)) (or $x1986 $x2071 $x6552 $x7159) $x10069 (<= S_3 (+ A_2 ?x322 C)) (or $x2569 (<= (+ C S_2 (* (- 1.0) S_4)) 0.0)) $x9940 (<= (+ (* (- 5.0) C) S_4 (* (- 1.0) S_0)) 0.0) (<= (+ (* (- 4.0) C) (* (- 1.0) S_1) S_4) 0.0) (<= (+ (* (- 3.0) C) (* (- 1.0) S_1) S_3) 0.0) (<= (+ (* (- 2.0) C) (* (- 1.0) S_2) S_3) 0.0) (<= (+ (* (- 3.0) C) (* (- 1.0) S_2) S_4) 0.0) $x10153 $x9930 (<= (+ (* (- 4.0) C) S_3 (* (- 1.0) S_0)) 0.0) $x721 $x746 $x37 (<= (+ (* (- 2.0) C) (* (- 1.0) S_3) S_4) 0.0))))))))))))))))))))))))))))))))))))))))))))))))))))))))))
(check-sat)
